NAME: cum30.tsp
TYPE: TSP
COMMENT: User-generated TSP file
DIMENSION: 30
EDGE_WEIGHT_TYPE: EUC_2D
NODE_COORD_SECTION
1 53.0 14.0
2 20.0 21.0
3 10.0 56.0
4 74.0 39.0
5 90.0 13.0
6 68.0 91.0
7 33.0 48.0
8 64.0 18.0
9 43.0 60.0
10 50.0 39.0
11 50.0 3.0
12 56.0 20.0
13 55.0 20.0
14 91.0 95.0
15 55.0 26.0
16 18.0 9.0
17 35.0 96.0
18 97.0 57.0
19 61.0 27.0
20 14.0 57.0
21 74.0 83.0
22 49.0 11.0
23 99.0 88.0
24 5.0 75.0
25 8.0 29.0
26 60.0 18.0
27 67.0 33.0
28 8.0 54.0
29 15.0 25.0
30 40.0 46.0
EOF

